20170623 45 0 0 0
20150916 325 20000 0 0
20150625 600 0 0 0
20140704 200 0 0 0
20130701 200 0 0 0
20120625 100 0 0 0
20110623 65 10000 0 0
20100830 25 10000 0 0
20090612 15 2000 0 0
20061220 0 2800 0 0
20041020 25 3000 0 0
20030821 50 2000 0 0
20020723 50 1000 0 0
20010621 200 0 0 0
